(set-info :smt-lib-version 2.5)
(set-info :license |https://www.gnu.org/licenses/gpl-3.0.html|)
(set-logic AUFDTLIRA)
(set-info :source |Benchmarks generated by Florian Schanda from the public SPARK 2014 testsuite and post-processed with a script to set more precise logics.|)
(set-info :category industrial)
(set-info :status unknown)

(declare-datatypes () ((tuple0 (Tuple0))))
(declare-sort us_private 0)
(declare-fun private__bool_eq (us_private us_private) Bool)
(declare-const us_null_ext__ us_private)
(declare-sort us_type_of_heap 0)
(declare-datatypes () ((us_type_of_heap__ref (mk___type_of_heap__ref (us_type_of_heap__content us_type_of_heap)))))
(declare-sort us_image 0)
(declare-datatypes () ((int__ref (mk_int__ref (int__content Int)))))
(declare-datatypes () ((bool__ref (mk_bool__ref (bool__content Bool)))))
(declare-datatypes () ((real__ref (mk_real__ref (real__content Real)))))
(declare-datatypes () ((us_private__ref (mk___private__ref (us_private__content us_private)))))
(define-fun int__ref___projection ((a int__ref)) Int (int__content a))
(define-fun bool__ref___projection ((a bool__ref)) Bool (bool__content a))
(define-fun real__ref___projection ((a real__ref)) Real (real__content a))
(define-fun us_private__ref___projection ((a us_private__ref)) us_private (us_private__content a))
(declare-sort natural 0)
(define-fun in_range ((x Int)) Bool (and (<= 0 x) (<= x 2147483647)))
(declare-fun attr__ATTRIBUTE_IMAGE (Int) us_image)
(declare-fun attr__ATTRIBUTE_VALUE__pre_check (us_image) Bool)
(declare-fun attr__ATTRIBUTE_VALUE (us_image) Int)
(declare-fun user_eq (natural natural) Bool)
(declare-const dummy natural)
(declare-datatypes () ((natural__ref (mk_natural__ref (natural__content natural)))))
(define-fun natural__ref___projection ((a natural__ref)) natural (natural__content a))
(declare-fun to_rep (natural) Int)
(declare-fun of_rep (Int) natural)
(assert (forall ((x natural)) (! (= (of_rep (to_rep x)) x) :pattern ((to_rep x)))))
(assert (forall ((x natural)) (! (in_range (to_rep x)) :pattern ((to_rep x)))))
(assert (forall ((x Int)) (! (=> (in_range x) (= (to_rep (of_rep x)) x)) :pattern ((to_rep (of_rep x))))))
(declare-datatypes () ((us_split_fields (mk___split_fields (rec__main__rec__comp natural)))))
(define-fun us_split_fields_Comp__projection ((a us_split_fields)) natural (rec__main__rec__comp a))
(declare-datatypes () ((us_split_fields__ref (mk___split_fields__ref (us_split_fields__content us_split_fields)))))
(define-fun us_split_fields__ref___projection ((a us_split_fields__ref)) us_split_fields (us_split_fields__content a))
(declare-datatypes () ((us_rep (mk___rep (us_split_fields1 us_split_fields)))))
(define-fun us_rep___projection ((a us_rep)) us_split_fields (us_split_fields1 a))
(define-fun bool_eq ((a us_rep) (b us_rep)) Bool (ite (= (to_rep (rec__main__rec__comp (us_split_fields1 a))) (to_rep (rec__main__rec__comp (us_split_fields1 b)))) true false))
(declare-const value__size Int)
(declare-fun object__size (us_rep) Int)
(declare-const value__alignment Int)
(declare-fun object__alignment (us_rep) Int)
(assert (<= 0 value__size))
(assert (forall ((a us_rep)) (<= 0 (object__size a))))
(assert (<= 0 value__alignment))
(assert (forall ((a us_rep)) (<= 0 (object__alignment a))))
(declare-const main__rec__comp__first__bit Int)
(declare-const main__rec__comp__last__bit Int)
(declare-const main__rec__comp__position Int)
(assert (<= 0 main__rec__comp__first__bit))
(assert (< main__rec__comp__first__bit main__rec__comp__last__bit))
(assert (<= 0 main__rec__comp__position))
(declare-fun user_eq1 (us_rep us_rep) Bool)
(declare-const dummy1 us_rep)
(declare-datatypes () ((rec____ref (mk_rec____ref (rec____content us_rep)))))
(define-fun rec____ref___projection ((a rec____ref)) us_rep (rec____content a))
(declare-sort index 0)
(define-fun in_range1 ((x Int)) Bool (and (<= 1 x) (<= x 10)))
(declare-fun attr__ATTRIBUTE_IMAGE1 (Int) us_image)
(declare-fun attr__ATTRIBUTE_VALUE__pre_check1 (us_image) Bool)
(declare-fun attr__ATTRIBUTE_VALUE1 (us_image) Int)
(declare-fun user_eq2 (index index) Bool)
(declare-const dummy2 index)
(declare-datatypes () ((index__ref (mk_index__ref (index__content index)))))
(define-fun index__ref___projection ((a index__ref)) index (index__content a))
(declare-datatypes () ((map__ref (mk_map__ref (map__content (Array Int us_rep))))))
(declare-fun slide ((Array Int us_rep) Int Int) (Array Int us_rep))
(assert (forall ((a (Array Int us_rep))) (forall ((first Int)) (! (= (slide a first first) a) :pattern ((slide a first first))))))
(assert (forall ((a (Array Int us_rep))) (forall ((old_first Int)) (forall ((new_first Int)) (forall ((i Int)) (! (= (select (slide a old_first new_first) i) (select a (- i (- new_first old_first)))) :pattern ((select (slide a old_first new_first) i))))))))
(define-fun bool_eq1 ((a (Array Int us_rep)) (a__first Int) (a__last Int) (b (Array Int us_rep)) (b__first Int) (b__last Int)) Bool (ite (and (ite (<= a__first a__last) (and (<= b__first b__last) (= (- a__last a__first) (- b__last b__first))) (< b__last b__first)) (forall ((temp___idx_154 Int)) (=> (and (<= a__first temp___idx_154) (<= temp___idx_154 a__last)) (= (bool_eq (select a temp___idx_154) (select b (+ (- b__first a__first) temp___idx_154))) true)))) true false))
(assert (forall ((a (Array Int us_rep)) (b (Array Int us_rep))) (forall ((a__first Int) (a__last Int) (b__first Int) (b__last Int)) (=> (= (bool_eq1 b b__first b__last a a__first a__last) true) (and (ite (<= a__first a__last) (and (<= b__first b__last) (= (- a__last a__first) (- b__last b__first))) (< b__last b__first)) (forall ((temp___idx_154 Int)) (=> (and (<= a__first temp___idx_154) (<= temp___idx_154 a__last)) (= (bool_eq (select a temp___idx_154) (select b (+ (- b__first a__first) temp___idx_154))) true))))))))
(define-fun default_initial_assumption ((temp___expr_178 (Array Int us_rep)) (temp___skip_top_level_179 Bool)) Bool (forall ((temp___180 Int)) (=> (and (<= 1 temp___180) (<= temp___180 10)) (= (to_rep (rec__main__rec__comp (us_split_fields1 (select temp___expr_178 temp___180)))) 1234))))
(declare-const result__ (Array Int us_rep))
(declare-const attr__ATTRIBUTE_ADDRESS Int)
(declare-fun main__get_arr__result__aggregate_def (us_rep) (Array Int us_rep))
(declare-fun temp___182 (us_rep) (Array Int us_rep))
(define-fun dynamic_invariant ((temp___expr_39 Int) (temp___is_init_35 Bool) (temp___skip_constant_36 Bool) (temp___do_toplevel_37 Bool) (temp___do_typ_inv_38 Bool)) Bool (=> (or (= temp___is_init_35 true) (<= 0 2147483647)) (in_range temp___expr_39)))
(define-fun default_initial_assumption1 ((temp___expr_163 us_rep) (temp___skip_top_level_164 Bool)) Bool (= (to_rep (rec__main__rec__comp (us_split_fields1 temp___expr_163))) 1234))
(define-fun dynamic_invariant1 ((temp___expr_169 Int) (temp___is_init_165 Bool) (temp___skip_constant_166 Bool) (temp___do_toplevel_167 Bool) (temp___do_typ_inv_168 Bool)) Bool (=> (or (= temp___is_init_165 true) (<= 1 10)) (in_range1 temp___expr_169)))
(assert (forall ((temp___184 us_rep)) (forall ((temp___185 Int)) (= (select (temp___182 temp___184) temp___185) temp___184))))
(assert (= result__ (main__get_arr__result__aggregate_def (mk___rep (mk___split_fields (of_rep 9012))))))
(assert (forall ((temp___156 us_rep)) (forall ((temp___157 Int)) (= (select (main__get_arr__result__aggregate_def temp___156) temp___157) temp___156))))
(declare-const main__get_arr__result (Array Int us_rep))
(declare-const o natural)
(declare-const o1 natural)
(declare-const o2 natural)
(declare-const main__get_arr__result__assume (Array Int us_rep))
(declare-const result (Array Int us_rep))
(declare-const main__get_arr__result1 (Array Int us_rep))
(declare-const main__get_arr__result2 (Array Int us_rep))
(declare-const main__get_arr__result3 (Array Int us_rep))
(declare-const main__get_arr__result4 (Array Int us_rep))
(declare-const main__get_arr__result5 (Array Int us_rep))
(declare-const result1 (Array Int us_rep))
(assert (= (to_rep o) 9012))
(assert (= o o1))
(assert (= o2 o1))
(assert (= main__get_arr__result__assume (main__get_arr__result__aggregate_def (mk___rep (mk___split_fields o2)))))
(assert (= main__get_arr__result__assume result__))
(assert (= main__get_arr__result1 main__get_arr__result2))
(assert (= main__get_arr__result3 main__get_arr__result1))
(assert (= result main__get_arr__result))
(assert (= main__get_arr__result1 result__))
(assert (= (mk_map__ref main__get_arr__result4) (mk_map__ref main__get_arr__result2)))
(assert (= main__get_arr__result5 main__get_arr__result3))
(assert (= result1 main__get_arr__result4))
(assert (not (= (bool_eq1 main__get_arr__result4 1 10 (temp___182 (mk___rep (mk___split_fields (of_rep 9012)))) 1 10) true)))
(check-sat)
(exit)
